NAME          ClpDefau  FREE
ROWS
 N  OBJROW
 L  ZMUNI1_PCT
 L  ZMUNI2_PCT
 L  ZMUNI3_PCT
 L  ZMUNI4_PCT
 L  ZMUNI5_PCT
 L  ZMUNI6_PCT
 L  ZMUNI7_PCT
 L  ZMUNI8_PCT
 L  ZMUNI9_PCT
COLUMNS
    QMUNI1 OBJROW 1.          
    QMUNI1 ZMUNI1_PCT 28388.21411 
    QMUNI1 ZMUNI2_PCT 2078.22323  
    QMUNI1 ZMUNI3_PCT 4826.21192  
    QMUNI1 ZMUNI4_PCT 3451.8242   
    QMUNI1 ZMUNI5_PCT 509.83429   
    QMUNI1 ZMUNI6_PCT 695.18089   
    QMUNI1 ZMUNI7_PCT 1949.93019  
    QMUNI1 ZMUNI8_PCT 1672.76859  
    QMUNI1 ZMUNI9_PCT 872.68352   
    QMUNI2 OBJROW 1.          
    QMUNI2 ZMUNI1_PCT 2599.3824   
    QMUNI2 ZMUNI2_PCT 33244.75288 
    QMUNI2 ZMUNI3_PCT 3466.22467  
    QMUNI2 ZMUNI4_PCT 3437.7099   
    QMUNI2 ZMUNI5_PCT 876.66511   
    QMUNI2 ZMUNI6_PCT 977.23007   
    QMUNI2 ZMUNI7_PCT 2231.07338  
    QMUNI2 ZMUNI8_PCT 2602.7441   
    QMUNI2 ZMUNI9_PCT 2689.7788   
    QMUNI3 OBJROW 1.          
    QMUNI3 ZMUNI1_PCT 4760.07462  
    QMUNI3 ZMUNI2_PCT 2974.53403  
    QMUNI3 ZMUNI3_PCT 29678.89308 
    QMUNI3 ZMUNI4_PCT 5528.0686   
    QMUNI3 ZMUNI5_PCT 372.95818   
    QMUNI3 ZMUNI6_PCT 525.6176    
    QMUNI3 ZMUNI7_PCT 1747.17903  
    QMUNI3 ZMUNI8_PCT 1731.03809  
    QMUNI3 ZMUNI9_PCT 1074.1353   
    QMUNI4 OBJROW 1.          
    QMUNI4 ZMUNI1_PCT 3709.55467  
    QMUNI4 ZMUNI2_PCT 3295.23086  
    QMUNI4 ZMUNI3_PCT 6057.92999  
    QMUNI4 ZMUNI4_PCT 98550.9873  
    QMUNI4 ZMUNI5_PCT 437.25967   
    QMUNI4 ZMUNI6_PCT 526.18981   
    QMUNI4 ZMUNI7_PCT 1444.86427  
    QMUNI4 ZMUNI8_PCT 1485.96764  
    QMUNI4 ZMUNI9_PCT 1020.34807  
    QMUNI5 OBJROW 1.          
    QMUNI5 ZMUNI1_PCT 257.20597   
    QMUNI5 ZMUNI2_PCT 95.91579    
    QMUNI5 ZMUNI3_PCT 205.18302   
    QMUNI5 ZMUNI4_PCT 166.7023    
    QMUNI5 ZMUNI5_PCT 30314.32628 
    QMUNI5 ZMUNI6_PCT 2685.07004  
    QMUNI5 ZMUNI7_PCT 114.82239   
    QMUNI5 ZMUNI8_PCT 18.88275    
    QMUNI5 ZMUNI9_PCT  -54.37136  
    QMUNI6 OBJROW 1.          
    QMUNI6 ZMUNI1_PCT 495.29076   
    QMUNI6 ZMUNI2_PCT 234.12704   
    QMUNI6 ZMUNI3_PCT 388.05007   
    QMUNI6 ZMUNI4_PCT 305.9388    
    QMUNI6 ZMUNI5_PCT 3036.37981  
    QMUNI6 ZMUNI6_PCT 30299.37744 
    QMUNI6 ZMUNI7_PCT 562.00028   
    QMUNI6 ZMUNI8_PCT 313.37738   
    QMUNI6 ZMUNI9_PCT 155.11512   
    QMUNI7 OBJROW 1.          
    QMUNI7 ZMUNI1_PCT 1781.36826  
    QMUNI7 ZMUNI2_PCT 1062.5124   
    QMUNI7 ZMUNI3_PCT 1576.80511  
    QMUNI7 ZMUNI4_PCT 1190.1856   
    QMUNI7 ZMUNI5_PCT 396.7762    
    QMUNI7 ZMUNI6_PCT 634.62258   
    QMUNI7 ZMUNI7_PCT 25781.20232 
    QMUNI7 ZMUNI8_PCT 2375.3643   
    QMUNI7 ZMUNI9_PCT 801.56326   
    QMUNI8 OBJROW 1.          
    QMUNI8 ZMUNI1_PCT 1322.17407  
    QMUNI8 ZMUNI2_PCT 1079.15401  
    QMUNI8 ZMUNI3_PCT 1337.64743  
    QMUNI8 ZMUNI4_PCT 1039.6004   
    QMUNI8 ZMUNI5_PCT 5.93662     
    QMUNI8 ZMUNI6_PCT 121.78421   
    QMUNI8 ZMUNI7_PCT 2161.74126  
    QMUNI8 ZMUNI8_PCT 24978.1847  
    QMUNI8 ZMUNI9_PCT 1204.5741   
    QMUNI9 OBJROW 1.          
    QMUNI9 ZMUNI1_PCT 847.33963   
    QMUNI9 ZMUNI2_PCT 1091.43257  
    QMUNI9 ZMUNI3_PCT 933.43257   
    QMUNI9 ZMUNI4_PCT 804.7104    
    QMUNI9 ZMUNI5_PCT 312.44755   
    QMUNI9 ZMUNI6_PCT 361.29952   
    QMUNI9 ZMUNI7_PCT 901.17455   
    QMUNI9 ZMUNI8_PCT 1425.02785  
    QMUNI9 ZMUNI9_PCT 23764.53876 
RHS
    RHS ZMUNI1_PCT  -1.96238502
    RHS ZMUNI2_PCT  -3.02234232
    RHS ZMUNI3_PCT  -3.26021205
    RHS ZMUNI4_PCT  -5.36118003
    RHS ZMUNI5_PCT  -1.38531485
    RHS ZMUNI6_PCT  -1.77592897
    RHS ZMUNI7_PCT  -3.04184663
    RHS ZMUNI8_PCT  -3.25608801
    RHS ZMUNI9_PCT  -3.3691604 
BOUNDS
 LO BOUND QMUNI1 -0.001483456
 UP BOUND QMUNI1      1.1e+10
 LO BOUND QMUNI2 -0.00111901 
 UP BOUND QMUNI2      1.1e+10
 LO BOUND QMUNI3 -0.001211104
 UP BOUND QMUNI3      1.1e+10
 LO BOUND QMUNI4 -0.000426097
 UP BOUND QMUNI4      1.1e+10
 LO BOUND QMUNI5 -0.001081219
 UP BOUND QMUNI5      1.1e+10
 LO BOUND QMUNI6 -0.001285215
 UP BOUND QMUNI6      1.1e+10
 LO BOUND QMUNI7 -0.000988279
 UP BOUND QMUNI7      1.1e+10
 LO BOUND QMUNI8 -0.001088419
 UP BOUND QMUNI8      1.1e+10
 LO BOUND QMUNI9 -0.001324085
 UP BOUND QMUNI9      1.1e+10
ENDATA
